#Initializing

units		 	lj
atom_style	 	atomic
lattice fcc	 	0.8
variable L equal	66.0
variable T equal 10.0

region box block 0 ${L} 0 ${L} 0 ${L} units box
region init block 0.1 ${L} 0.1 ${L} 0.1 ${L} units box
create_box 1 box
create_atoms 1 region init
group atoms type 1

mass * 1.0
pair_style lj/cut 2.5
pair_coeff * * 1.0 1.0 2.5
neighbor 0.5 bin
neigh_modify every 5 delay 0 check yes

#Melting crystal

velocity atoms create ${T} 87287
fix 1 atoms nvt temp ${T} ${T} 0.02
thermo 1000
timestep 0.002

run 200000

#Writing final state

write_data data.large_box_melted_200k nocoeff

